(set-logic QF_BV)
(declare-fun _substvar_1108_ () (_ BitVec 11))
(declare-fun _substvar_850_ () (_ BitVec 11))
(declare-fun _substvar_1096_ () (_ BitVec 11))
(declare-fun _substvar_1909_ () Bool)
(declare-fun _substvar_1077_ () (_ BitVec 11))
(declare-fun _substvar_1076_ () (_ BitVec 11))
(declare-fun _substvar_3531_ () Bool)
(declare-fun _substvar_948_ () (_ BitVec 11))
(declare-fun _substvar_1901_ () Bool)
(declare-fun _substvar_1102_ () (_ BitVec 11))
(declare-fun _substvar_2110_ () (_ BitVec 11))
(declare-fun _substvar_936_ () (_ BitVec 11))
(declare-fun _substvar_1912_ () Bool)
(declare-fun _substvar_1071_ () (_ BitVec 11))
(declare-fun _substvar_949_ () (_ BitVec 11))
(declare-fun _substvar_2764_ () Bool)
(declare-fun _substvar_5042_ () Bool)
(assert (or false false false false false false false false false false false false (and _substvar_3531_ true (= _substvar_2110_ (_ bv0 11)))))
(assert (or false false false false false false false false false false false false false (and _substvar_1901_ true (= _substvar_1071_ (bvsub (bvshl (_ bv1 11) _substvar_850_) (_ bv0 11)))) false false false false (and true true (bvugt _substvar_2110_ (_ bv0 11)) true) false false false false false))
(assert (or false false false false false false false false false false false false false false false false false false false false false false false false (and true true (bvugt _substvar_1071_ (_ bv0 11)) (= _substvar_1076_ (_ bv0 11))) false false false false false false false false false false false false false))
(assert (or false false false false false false (and true true _substvar_1912_ (= _substvar_936_ (_ bv0 11))) false false false false false false false false false false false false false false false false false false false false (and true true _substvar_1909_ (= _substvar_936_ (bvsub _substvar_1071_ (_ bv0 11)))) false false false false false false false false false false false false false false false false false false false false false false false false false false false))
(assert (or false false false false false false false false false false false false false (and true true true (= _substvar_949_ (bvsub _substvar_1071_ (_ bv255 11)))) false (and true true true (= _substvar_949_ (bvsub (_ bv255 11) (_ bv0 11)))) false false (and true true true (= _substvar_949_ (bvsub (_ bv255 11) _substvar_936_))) false false false false false false false false false false false false false false false false false false false false false false false false false (and true true true (= _substvar_949_ (bvsub _substvar_1071_ _substvar_2110_))) false false false false false false false (and true _substvar_2764_ (= _substvar_949_ (_ bv0 11))) false false false false false false false false false false false false false false false false false false false false false false))
(assert (or false false false false false false false false false false false false false false false false false false false false false (and true true (bvugt _substvar_1077_ _substvar_949_) (= _substvar_948_ (_ bv0 11))) false false false false false false false false false false false false false false false false false false false false false false false false false false false false false false false false false false (and true true _substvar_5042_ (= _substvar_948_ (bvsub _substvar_936_ _substvar_2110_))) false false false false false false false false false false false false false false false false false false false false false false false false false false false false false false (and true true (= _substvar_948_ (_ bv0 11))) false false false (and true true true (= _substvar_948_ (bvsub _substvar_936_ _substvar_949_))) (and true true (bvugt _substvar_949_ (_ bv0 11)) (= _substvar_948_ (_ bv0 11))) false (and true true (= _substvar_948_ (bvsub _substvar_949_ (_ bv1 11)))) false false false))
(assert (or false false false false false false false false false false false false false false false false false false false false false false false false false false false false false false false false false false false false false false false false false false false false false false false false false false false false false false false (and true true (bvugt _substvar_2110_ _substvar_1071_) true) (and true true true (= _substvar_1096_ (bvsub _substvar_1071_ _substvar_2110_))) false false false false false false false false false false false false false false false false false false false false false false false false false false false false false false false false false false false (and true true (bvugt _substvar_1076_ _substvar_936_) true) false false false false false false false false false false false false false false false false false false false false false false false false false false false false false false false))
(assert (or false false false false false false false false false false false false (and true true true (= _substvar_1108_ (bvsub (_ bv255 11) _substvar_1071_))) false false false false false false false false false false false false false false false false false false false false false false false false false false false false false false false false false false false false false false false false false false false false false false false false false false false false false false false false false false false false false false false false false false false false false false (and true true true (= _substvar_1108_ (bvsub _substvar_1096_ _substvar_2110_))) false false false false false false false false false false false false false false false false false false false false false false false false false false false false (and true true (= _substvar_1108_ (bvsub (_ bv1 11) _substvar_1076_))) false false false false false false false false false false false false false false false false false false false false false false false false false false false false false false false false false (and true true true (= _substvar_1108_ (bvsub (_ bv0 11) _substvar_936_))) false (and true (bvugt _substvar_949_ (_ bv0 11)) (= _substvar_1108_ (_ bv0 11))) false false false false (and true true true (= _substvar_1108_ (bvsub _substvar_949_ _substvar_948_))) (and true true (bvugt _substvar_948_ _substvar_949_) (= _substvar_1108_ (bvsub _substvar_948_ _substvar_949_))) false false false false false false false false false false false false false false false false false false false false false false false false false false false (and true true (= _substvar_1108_ (bvsub (_ bv0 11) _substvar_1102_))) false false))
(assert (or false false false false false (= (_ bv483 11) _substvar_948_) false (= (_ bv483 11) _substvar_1102_) (= (_ bv483 11) _substvar_1108_)))
(assert (or false false false false (= (_ bv307 11) _substvar_949_) (= (_ bv307 11) _substvar_948_) false (= (_ bv307 11) _substvar_1102_) (= (_ bv307 11) _substvar_1108_)))
(check-sat)
(exit)
